Traveling Salesman Problem/TSP_generados/Aleatorio1621103381_12.tsp
NAME: Aleatorio1621103381_12.tsp
COMMENT: Randomly generated scenario
TYPE: TSP
DIMENSION: 12
EDGE_WEIGHT_TYPE: ATT
NODE_COORD_SECTION
1 33.59 45.91
2 7.73 33.42
3 25.56 40.93
4 10.1 1.98
5 37.08 45.86
6 28.77 6.65
7 9.23 10.46
8 33.38 41.78
9 32.44 17.02
10 4.74 42.79
11 34.33 19.35
12 31.62 6.06
