Traveling Salesman Problem/TSP_generados/Aleatorio1621103381_12.opt.tour
NAME: Aleatorio1621103381_12.opt.tour
COMMENT: Optimal solution for Aleatorio1621103381_12 (139.31549821822694)
TYPE: TOUR
DIMENSION: 12
TOUR_SECTION
1 3 10 2 7 4 6 12 9 11 8 5
-1
EOF
